25° run output:
{
    "Function": "kroA300.tsp",
    "Problem dimension": [
        238,
        256,
        189,
        45,
        220,
        107,
        37,
        113,
        97,
        136,
        194,
        163,
        249,
        119,
        186,
        222,
        100,
        23,
        282,
        241,
        217,
        82,
        10,
        251,
        44,
        169,
        234,
        188,
        29,
        276,
        79,
        128,
        134,
        30,
        116,
        267,
        142,
        229,
        275,
        25,
        6,
        43,
        205,
        223,
        1,
        36,
        179,
        20,
        62,
        75,
        143,
        149,
        12,
        127,
        192,
        165,
        56,
        58,
        125,
        193,
        279,
        54,
        161,
        63,
        176,
        126,
        106,
        33,
        133,
        208,
        87,
        27,
        203,
        164,
        95,
        155,
        283,
        141,
        252,
        286,
        230,
        85,
        214,
        295,
        120,
        46,
        32,
        258,
        246,
        114,
        117,
        34,
        271,
        156,
        151,
        261,
        105,
        88,
        90,
        69,
        281,
        253,
        187,
        202,
        248,
        269,
        174,
        13,
        137,
        118,
        277,
        49,
        172,
        70,
        7,
        225,
        131,
        19,
        235,
        270,
        209,
        167,
        265,
        177,
        89,
        24,
        272,
        60,
        280,
        293,
        41,
        159,
        236,
        53,
        291,
        292,
        101,
        240,
        184,
        288,
        67,
        219,
        211,
        42,
        215,
        228,
        55,
        102,
        132,
        264,
        93,
        273,
        224,
        154,
        138,
        14,
        180,
        266,
        98,
        52,
        221,
        153,
        139,
        289,
        178,
        233,
        140,
        74,
        244,
        239,
        168,
        3,
        96,
        86,
        9,
        152,
        245,
        18,
        71,
        61,
        28,
        17,
        35,
        181,
        160,
        66,
        297,
        182,
        210,
        268,
        84,
        68,
        72,
        196,
        198,
        91,
        65,
        121,
        254,
        130,
        48,
        259,
        243,
        247,
        40,
        122,
        157,
        204,
        73,
        262,
        77,
        21,
        111,
        285,
        284,
        171,
        47,
        206,
        212,
        83,
        51,
        76,
        216,
        175,
        135,
        0,
        185,
        218,
        124,
        5,
        129,
        4,
        112,
        257,
        147,
        195,
        170,
        260,
        99,
        213,
        201,
        197,
        274,
        146,
        278,
        108,
        92,
        26,
        11,
        158,
        231,
        39,
        115,
        200,
        255,
        294,
        57,
        183,
        8,
        298,
        148,
        15,
        242,
        207,
        94,
        104,
        299,
        81,
        144,
        173,
        110,
        80,
        290,
        226,
        250,
        227,
        38,
        103,
        50,
        263,
        109,
        31,
        287,
        237,
        191,
        166,
        59,
        190,
        64,
        78,
        145,
        150,
        232,
        16,
        22,
        296,
        123,
        2,
        162,
        199
    ],
    "Global Optimum": 0,
    "Algorithm": "Genetic algorithm",
    "Parameters": {
        "population": 30,
        "offspring": 30,
        "mutation probability": 0.0033333333333333335,
        "crossover probability": 0.9
    },
    "Fitness": 334439,
    "Solution": [
        238,
        256,
        189,
        45,
        220,
        107,
        37,
        113,
        97,
        136,
        194,
        163,
        249,
        119,
        186,
        222,
        100,
        23,
        282,
        241,
        217,
        82,
        10,
        251,
        44,
        169,
        234,
        188,
        29,
        276,
        79,
        128,
        134,
        30,
        116,
        267,
        142,
        229,
        275,
        25,
        6,
        43,
        205,
        223,
        1,
        36,
        179,
        20,
        62,
        75,
        143,
        149,
        12,
        127,
        192,
        165,
        56,
        58,
        125,
        193,
        279,
        54,
        161,
        63,
        176,
        126,
        106,
        33,
        133,
        208,
        87,
        27,
        203,
        164,
        95,
        155,
        283,
        141,
        252,
        286,
        230,
        85,
        214,
        295,
        120,
        46,
        32,
        258,
        246,
        114,
        117,
        34,
        271,
        156,
        151,
        261,
        105,
        88,
        90,
        69,
        281,
        253,
        187,
        202,
        248,
        269,
        174,
        13,
        137,
        118,
        277,
        49,
        172,
        70,
        7,
        225,
        131,
        19,
        235,
        270,
        209,
        167,
        265,
        177,
        89,
        24,
        272,
        60,
        280,
        293,
        41,
        159,
        236,
        53,
        291,
        292,
        101,
        240,
        184,
        288,
        67,
        219,
        211,
        42,
        215,
        228,
        55,
        102,
        132,
        264,
        93,
        273,
        224,
        154,
        138,
        14,
        180,
        266,
        98,
        52,
        221,
        153,
        139,
        289,
        178,
        233,
        140,
        74,
        244,
        239,
        168,
        3,
        96,
        86,
        9,
        152,
        245,
        18,
        71,
        61,
        28,
        17,
        35,
        181,
        160,
        66,
        297,
        182,
        210,
        268,
        84,
        68,
        72,
        196,
        198,
        91,
        65,
        121,
        254,
        130,
        48,
        259,
        243,
        247,
        40,
        122,
        157,
        204,
        73,
        262,
        77,
        21,
        111,
        285,
        284,
        171,
        47,
        206,
        212,
        83,
        51,
        76,
        216,
        175,
        135,
        0,
        185,
        218,
        124,
        5,
        129,
        4,
        112,
        257,
        147,
        195,
        170,
        260,
        99,
        213,
        201,
        197,
        274,
        146,
        278,
        108,
        92,
        26,
        11,
        158,
        231,
        39,
        115,
        200,
        255,
        294,
        57,
        183,
        8,
        298,
        148,
        15,
        242,
        207,
        94,
        104,
        299,
        81,
        144,
        173,
        110,
        80,
        290,
        226,
        250,
        227,
        38,
        103,
        50,
        263,
        109,
        31,
        287,
        237,
        191,
        166,
        59,
        190,
        64,
        78,
        145,
        150,
        232,
        16,
        22,
        296,
        123,
        2,
        162,
        199
    ],
    "Nb of functions evaluations": 50010,
    "Computational time in seconds": 142.01155829429626,
    "Stopping criterion in evaluations": 50000
}